aux_benchmarks/lp2sat/smokers_3_5_prob.lp.lp.cnf
p cnf 7 8
5 0
6 0
7 0
-1 0
-1 0
-2 0
-3 0
-4 0
c p auxilliary 1 2 3 4 0
