aux_benchmarks/smokers/smokers_3_5_prob.lp.cnf
p cnf 6 9
4 0
-1 4 0
1 -4 0
5 0
-2 5 0
2 -5 0
6 0
-3 6 0
3 -6 0
c p weight 1 1.0 0
c p weight -1 1.0 0
c p weight 2 1.0 0
c p weight -2 1.0 0
c p weight 3 1.0 0
c p weight -3 1.0 0
c p weight 4 1.0 0
c p weight -4 1.0 0
c p weight 5 1.0 0
c p weight -5 1.0 0
c p weight 6 1.0 0
c p weight -6 1.0 0
c p semirings aspmc.semirings.probabilistic 0
c p quantify 1 2 3 4 5 6 0
c p auxilliary 1 2 3 4 5 6 0
